Default LOCALE: LC_CTYPE=en_US.UTF-8;LC_NUMERIC=it_IT.UTF-8;LC_TIME=en_US.UTF-8;LC_COLLATE=en_US.UTF-8;LC_MONETARY=it_IT.UTF-8;LC_MESSAGES=en_US.UTF-8;LC_PAPER=it_IT.UTF-8;LC_NAME=it_IT.UTF-8;LC_ADDRESS=it_IT.UTF-8;LC_TELEPHONE=it_IT.UTF-8;LC_MEASUREMENT=it_IT.UTF-8;LC_IDENTIFICATION=it_IT.UTF-8

<<< setup, at 0s, took 1,54878e+09s


<<< generate, at 0s, took 0,00412798s

CPXPARAM_TimeLimit                               1
Tried aggregator 2 times.
MIP Presolve eliminated 9 rows and 9 columns.
Aggregator did 10 substitutions.
Reduced MIP has 111 rows, 181 columns, and 614 nonzeros.
Reduced MIP has 90 binaries, 91 generals, 0 SOSs, and 0 indicators.
Presolve time = 0,00 sec. (0,61 ticks)
Found incumbent of value 89,776822 after 0,00 sec. (1,23 ticks)
Probing fixed 7 vars, tightened 0 bounds.
Probing time = 0,00 sec. (0,36 ticks)
Cover probing fixed 0 vars, tightened 63 bounds.
Tried aggregator 1 time.
MIP Presolve eliminated 10 rows and 16 columns.
MIP Presolve modified 112 coefficients.
Reduced MIP has 101 rows, 165 columns, and 565 nonzeros.
Reduced MIP has 83 binaries, 82 generals, 0 SOSs, and 0 indicators.
Presolve time = 0,00 sec. (0,67 ticks)
Probing time = 0,00 sec. (0,30 ticks)
Clique table members: 19.
MIP emphasis: balance optimality and feasibility.
MIP search method: dynamic search.
Parallel mode: deterministic, using up to 4 threads.
Root relaxation solution time = 0,00 sec. (0,74 ticks)

        Nodes                                         Cuts/
   Node  Left     Objective  IInf  Best Integer    Best Bound    ItCnt     Gap

*     0+    0                           89,7768        0,0000           100,00%
      0     0       31,7213    25       89,7768       31,7213      116   64,67%
      0     0       38,9635    27       89,7768      Cuts: 47      173   56,60%
      0     0       39,1583    39       89,7768      Cuts: 29      205   56,38%
      0     0       39,3980    42       89,7768      Cuts: 16      238   56,12%
      0     0       39,4712    45       89,7768      Cuts: 19      244   56,03%
      0     0       39,5637    47       89,7768       Cuts: 9      253   55,93%
      0     0       39,6493    45       89,7768       Cuts: 6      272   55,84%
      0     0       39,7339    42       89,7768      Cuts: 11      290   55,74%
      0     0       39,7681    46       89,7768      Cuts: 14      301   55,70%
      0     0       39,7895    49       89,7768      Cuts: 11      313   55,68%
      0     0       39,7895    49       89,7768   ZeroHalf: 7      319   55,68%
      0     0       39,8317    51       89,7768       Cuts: 7      336   55,63%
      0     0       39,9030    48       89,7768       Cuts: 8      361   55,55%
      0     0       39,9472    55       89,7768      Cuts: 17      380   55,50%
      0     0       39,9706    51       89,7768       Cuts: 9      428   55,48%
      0     0       39,9738    53       89,7768      Cuts: 18      440   55,47%
*     0+    0                           45,1098       39,9738            11,39%
*     0+    0                           42,9862       39,9738             7,01%
      0     0        cutoff             42,9862       42,9862      440    0,00%
Elapsed time = 0,09 sec. (44,45 ticks, tree = 0,01 MB, solutions = 3)

Cover cuts applied:  2
Implied bound cuts applied:  10
Flow cuts applied:  19
Zero-half cuts applied:  14
Gomory fractional cuts applied:  1

Root node processing (before b&c):
  Real time             =    0,09 sec. (44,47 ticks)
Parallel b&c, 4 threads:
  Real time             =    0,00 sec. (0,00 ticks)
  Sync time (average)   =    0,00 sec.
  Wait time (average)   =    0,00 sec.
                          ------------
Total (root+branch&cut) =    0,09 sec. (44,47 ticks)

<<< solve, at 0,23s, took 0,087821s


OBJECTIVE: 42.98622
01/29/2019 18:42:35 421
solving time ~= 89.562011719
Done
 [[0 0 7 0 0 0 0 0 0 0]
         [0 0 0 5 0 0 0 0 0 0]
         [0 6 0 0 0 0 0 0 0 0]
         [0 0 0 0 4 0 0 0 0 0]
         [0 0 0 0 0 0 0 0 0 3]
         [8 0 0 0 0 0 0 0 0 0]
         [0 0 0 0 0 0 0 10 0 0]
         [0 0 0 0 0 9 0 0 0 0]
         [0 0 0 0 0 0 1 0 0 0]
         [0 0 0 0 0 0 0 0 2 0]]

<<< post process, at 0,23s, took 0,000601053s

// solution (optimal) with objective 42.9862225394728
// Quality Incumbent solution:
// MILP objective                                 4,2986222539e+01
// MILP solution norm |x| (Total, Max)            6,50000e+01  1,00000e+01
// MILP solution error (Ax=b) (Total, Max)        0,00000e+00  0,00000e+00
// MILP x bound error (Total, Max)                0,00000e+00  0,00000e+00
// MILP x integrality error (Total, Max)          0,00000e+00  0,00000e+00
// MILP slack bound error (Total, Max)            0,00000e+00  0,00000e+00
// 

y = [[0
             0 1 0 0 0 0 0 0 0]
             [0 0 0 1 0 0 0 0 0 0]
             [0 1 0 0 0 0 0 0 0 0]
             [0 0 0 0 1 0 0 0 0 0]
             [0 0 0 0 0 0 0 0 0 1]
             [1 0 0 0 0 0 0 0 0 0]
             [0 0 0 0 0 0 0 1 0 0]
             [0 0 0 0 0 1 0 0 0 0]
             [0 0 0 0 0 0 1 0 0 0]
             [0 0 0 0 0 0 0 0 1 0]];
x = [[0 0 7 0 0 0 0 0 0 0]
             [0 0 0 5 0 0 0 0 0 0]
             [0 6 0 0 0 0 0 0 0 0]
             [0 0 0 0 4 0 0 0 0 0]
             [0 0 0 0 0 0 0 0 0 3]
             [8 0 0 0 0 0 0 0 0 0]
             [0 0 0 0 0 0 0 10 0 0]
             [0 0 0 0 0 9 0 0 0 0]
             [0 0 0 0 0 0 1 0 0 0]
             [0 0 0 0 0 0 0 0 2 0]];

<<< done, at 0,23s, took 0,000473022s

